headline_hunt/bets/programmatic_sat_propagator/results/phase2c_rule4r61_2026-04-25/baseline.log
Loaded varmap: 56 (reg,round) entries, total_vars=12816
Conflict limit: 50000
Cascade-zero targets: 352 SAT vars observed, 0 bits already const-false
Rule 5  (dc_63 = dg_63): 32 bit-pairs registered
Rule 4@r=61 (dA[61] = dE[61]): 32 bit-pairs registered
Running WITHOUT propagator (baseline)
Loaded 53698 clauses from headline_hunt/bets/programmatic_sat_propagator/results/phase2c_rule4r61_2026-04-25/aux_expose_sr61_n32_bit10.cnf
Solving...

Result: 0 (10=SAT, 20=UNSAT, 0=UNKNOWN)
Propagator stats:
  notify_assignment events: 0
  cb_propagate fires:       0
    of which Rule 5 fires:  0
    of which Rule 4@r=61:   0
  decisions:                0
  backtracks:               0
s UNKNOWN
